12 40 9 10
20 15 5 13 20 8 17 13 19 18 3 3 8 7 1 5 15 17 10 18 8 13 9 20 12 7 7 20 1 9 7 2 17 8 11 9 3 12 8 14 
7.93 1.9 7.13 6.7 7.41 0.35 3.45 5.17 1.5 1.24 6.86 3.18 0.29 2.68 0.68 6.52 1.62 0.55 2.39 6.83 2.97 3.01 0.6 5.27 4.37 1.34 3.76 4.71 1.13 1.61 1.95 1.45 5.57 1.03 5.6 1.89 2.45 5.79 0.68 5.11 
1.38 7.6 0.07 4.38 2.14 5.73 3.39 6.23 4.39 4.75 5.16 1.91 2.96 4.26 7.28 2.6 1.14 0.16 3.27 4.37 3.46 7.33 6.32 4.99 6.66 1.59 6.8 1.39 7.28 3.93 7.48 0.95 7.58 7.78 5.7 5.94 7.41 5.32 7.84 1.38 
2.02 7.86 3.71 1.74 4.33 3.94 6.01 4.95 3.39 0.78 0.35 5.97 4.81 6.3 6.76 3.22 0.32 7.51 4.71 7.47 5.08 4.17 3.21 0.08 7.78 6.87 7.84 6.59 6.83 6.33 6.93 6.96 2.78 2.17 0.22 0.83 2.67 1.16 0.63 6.59 
5.74 3.17 6.62 5.7 7.77 5.73 6.09 4.79 0.06 4.08 0.96 4.56 7.8 6.12 0.33 2.94 6.85 1.87 6.12 6.85 1.06 4.63 1.28 4.72 7.49 3.36 7.47 0.99 2.18 5.99 4.55 7.24 7.55 7.55 3.2 7.34 7.58 7.02 6.02 1.27 
0.89 2.08 4.3 4.91 2.06 3.97 3.28 0.07 6.95 3.17 3.32 5.94 5.83 3.04 2.1 6.3 1.15 1.22 4.33 5.89 6.3 7.9 0.53 6.29 1.37 4.33 6.23 4.88 4.04 2.52 5.4 7.06 6.66 0.01 1.16 2.7 1.45 6.43 1.16 7.73 
5.81 1.44 5.49 5.85 0 2.4 6.18 6.02 3.59 7.7 7.23 2.98 0.75 7.71 6.43 0.71 3.42 6.02 1.76 3.53 7.92 1.47 1.97 4.71 3.32 0.08 3.29 6.74 4.28 3.7 1.55 0.31 0.59 6.66 7.52 4.46 5.69 6.72 1.89 7.45 
1.54 7.01 7.45 6.54 3.15 7.92 0.86 3.55 5.83 0.85 4.79 3.16 0.7 6.1 5.84 3.3 7.02 5.59 0.37 7.11 6.76 6.24 6.88 2.69 0.1 6.67 2.74 7.69 5.96 2.45 0.83 7.04 4.12 2.75 7.41 4.11 2.09 0.97 3.34 3.04 
6.54 0.37 4.01 5.66 0.66 6.7 4.74 0.79 3.84 3.82 7.08 5.26 5.29 1.03 0.88 0.6 7.43 3.01 5.53 2.56 4.02 0.73 2.71 3.24 4.05 7.56 1.01 3.75 6.48 0.48 4.18 7.48 3.33 3.03 3.49 5.36 3.84 2.68 4.71 4.34 
7.86 0.16 4.25 4.55 1.96 7.92 6.68 4.33 2.14 3.89 5.53 2.22 6.09 5.4 0.88 5.92 1.54 7.13 7.34 0.72 5.46 6.21 3.42 1.7 7.12 4.44 5.1 2.3 1.72 0.49 0.12 2.87 6.23 6.41 2.36 1.54 1.5 7.49 0.84 2.68 
4 4 4 4 4 4 4 4 4 4 4 4 4 4 4 4 4 4 4 4 4 4 4 4 4 4 4 4 4 4 4 4 4 4 4 4 4 4 4 4 
0.12 1.82 1.47 2.35 3.73 1.62 7.99 0.18 2.91 4.73 7.22 2.96 4.54 3.46 2.15 7.42 4.81 6.14 4.59 6.6 6.52 2.61 6.23 6.35 4.18 2.89 1.83 0.97 1.52 3.88 4.27 6.02 3.62 4.97 3.7 7.4 4.44 6.19 6.1 0.84 
3.48 4.5 2.97 2.13 0.25 1.77 0.21 2.91 5.89 0.4 1.91 7.98 3.37 1.33 2.18 3.64 4.35 2.23 6.95 1.03 1.26 4.8 0.39 6.49 6.21 0.42 7.25 4.08 1.88 5.91 0.45 2.14 7.67 7.02 5.66 1.02 7.32 2.31 7.97 3.42 
1 1 1 1 1 1 1 1 1 1 1 1 1 1 1 1 1 1 1 1 1 1 1 1 1 1 1 1 1 1 1 1 1 1 1 1 1 1 1 1 
1 1 1 1 1 1 1 1 1 1 1 1 1 1 1 1 1 1 1 1 1 1 1 1 1 1 1 1 1 1 1 1 1 1 1 1 1 1 1 1 
1 1 1 1 1 1 1 1 1 1 1 1 1 1 1 1 1 1 1 1 1 1 1 1 1 1 1 1 1 1 1 1 1 1 1 1 1 1 1 1 
1 1 1 1 1 1 1 1 1 1 1 1 1 1 1 1 1 1 1 1 1 1 1 1 1 1 1 1 1 1 1 1 1 1 1 1 1 1 1 1 
1 1 1 1 1 1 1 1 1 1 1 1 1 1 1 1 1 1 1 1 1 1 1 1 1 1 1 1 1 1 1 1 1 1 1 1 1 1 1 1 
1 1 1 1 1 1 1 1 1 1 1 1 1 1 1 1 1 1 1 1 1 1 1 1 1 1 1 1 1 1 1 1 1 1 1 1 1 1 1 1 
1 1 1 1 1 1 1 1 1 1 1 1 1 1 1 1 1 1 1 1 1 1 1 1 1 1 1 1 1 1 1 1 1 1 1 1 1 1 1 1 
1 1 1 1 1 1 1 1 1 1 1 1 1 1 1 1 1 1 1 1 1 1 1 1 1 1 1 1 1 1 1 1 1 1 1 1 1 1 1 1 
1 1 1 1 1 1 1 1 1 1 1 1 1 1 1 1 1 1 1 1 1 1 1 1 1 1 1 1 1 1 1 1 1 1 1 1 1 1 1 1 
1 1 1 1 1 1 1 1 1 1 1 1 1 1 1 1 1 1 1 1 1 1 1 1 1 1 1 1 1 1 1 1 1 1 1 1 1 1 1 1 
1 1 1 1 1 1 1 1 1 1 1 1 1 1 1 1 1 1 1 1 1 1 1 1 1 1 1 1 1 1 1 1 1 1 1 1 1 1 1 1 
1 1 1 1 1 1 1 1 1 1 1 1 1 1 1 1 1 1 1 1 1 1 1 1 1 1 1 1 1 1 1 1 1 1 1 1 1 1 1 1 
0.01 0.01 0.01 0.01 0.01 0.01 0.01 0.01 0.01 0.01 0.01 0.01 0.01 0.01 0.01 0.01 0.01 0.01 0.01 0.01 0.01 0.01 0.01 0.01 0.01 0.01 0.01 0.01 0.01 0.01 0.01 0.01 0.01 0.01 0.01 0.01 0.01 0.01 0.01 0.01 
0.02 0.02 0.02 0.02 0.02 0.02 0.02 0.02 0.02 0.02 0.02 0.02 0.02 0.02 0.02 0.02 0.02 0.02 0.02 0.02 0.02 0.02 0.02 0.02 0.02 0.02 0.02 0.02 0.02 0.02 0.02 0.02 0.02 0.02 0.02 0.02 0.02 0.02 0.02 0.02 
0.03 0.03 0.03 0.03 0.03 0.03 0.03 0.03 0.03 0.03 0.03 0.03 0.03 0.03 0.03 0.03 0.03 0.03 0.03 0.03 0.03 0.03 0.03 0.03 0.03 0.03 0.03 0.03 0.03 0.03 0.03 0.03 0.03 0.03 0.03 0.03 0.03 0.03 0.03 0.03 
0.04 0.04 0.04 0.04 0.04 0.04 0.04 0.04 0.04 0.04 0.04 0.04 0.04 0.04 0.04 0.04 0.04 0.04 0.04 0.04 0.04 0.04 0.04 0.04 0.04 0.04 0.04 0.04 0.04 0.04 0.04 0.04 0.04 0.04 0.04 0.04 0.04 0.04 0.04 0.04 
0.05 0.05 0.05 0.05 0.05 0.05 0.05 0.05 0.05 0.05 0.05 0.05 0.05 0.05 0.05 0.05 0.05 0.05 0.05 0.05 0.05 0.05 0.05 0.05 0.05 0.05 0.05 0.05 0.05 0.05 0.05 0.05 0.05 0.05 0.05 0.05 0.05 0.05 0.05 0.05 
0.06 0.06 0.06 0.06 0.06 0.06 0.06 0.06 0.06 0.06 0.06 0.06 0.06 0.06 0.06 0.06 0.06 0.06 0.06 0.06 0.06 0.06 0.06 0.06 0.06 0.06 0.06 0.06 0.06 0.06 0.06 0.06 0.06 0.06 0.06 0.06 0.06 0.06 0.06 0.06 
0.07 0.07 0.07 0.07 0.07 0.07 0.07 0.07 0.07 0.07 0.07 0.07 0.07 0.07 0.07 0.07 0.07 0.07 0.07 0.07 0.07 0.07 0.07 0.07 0.07 0.07 0.07 0.07 0.07 0.07 0.07 0.07 0.07 0.07 0.07 0.07 0.07 0.07 0.07 0.07 
0.08 0.08 0.08 0.08 0.08 0.08 0.08 0.08 0.08 0.08 0.08 0.08 0.08 0.08 0.08 0.08 0.08 0.08 0.08 0.08 0.08 0.08 0.08 0.08 0.08 0.08 0.08 0.08 0.08 0.08 0.08 0.08 0.08 0.08 0.08 0.08 0.08 0.08 0.08 0.08 
0.09 0.09 0.09 0.09 0.09 0.09 0.09 0.09 0.09 0.09 0.09 0.09 0.09 0.09 0.09 0.09 0.09 0.09 0.09 0.09 0.09 0.09 0.09 0.09 0.09 0.09 0.09 0.09 0.09 0.09 0.09 0.09 0.09 0.09 0.09 0.09 0.09 0.09 0.09 0.09 
0.1 0.1 0.1 0.1 0.1 0.1 0.1 0.1 0.1 0.1 0.1 0.1 0.1 0.1 0.1 0.1 0.1 0.1 0.1 0.1 0.1 0.1 0.1 0.1 0.1 0.1 0.1 0.1 0.1 0.1 0.1 0.1 0.1 0.1 0.1 0.1 0.1 0.1 0.1 0.1 
0.5 0.5 0.5 0.5 0.5 0.5 0.5 0.5 0.5 0.5 0.5 0.5 0.5 0.5 0.5 0.5 0.5 0.5 0.5 0.5 0.5 0.5 0.5 0.5 0.5 0.5 0.5 0.5 0.5 0.5 0.5 0.5 0.5 0.5 0.5 0.5 0.5 0.5 0.5 0.5 
1 1 1 1 1 1 1 1 1 1 1 1 1 1 1 1 1 1 1 1 1 1 1 1 1 1 1 1 1 1 1 1 1 1 1 1 1 1 1 1 
